(set-logic QF_LIA)
(declare-fun x0 () Int)
(declare-fun x1 () Int)
(declare-fun x2 () Int)
(declare-fun x3 () Int)
(declare-fun x4 () Int)
(declare-fun x5 () Int)
(declare-fun x6 () Int)
(declare-fun x7 () Int)
(declare-fun x8 () Int)
(declare-fun x9 () Int)
(declare-fun A0 () Bool)
(declare-fun A1 () Bool)
(declare-fun A2 () Bool)
(declare-fun A3 () Bool)
(declare-fun A4 () Bool)
(declare-fun A5 () Bool)
(declare-fun A6 () Bool)
(declare-fun A7 () Bool)
(declare-fun A8 () Bool)
(declare-fun A9 () Bool)
(assert (let ((.def_0 (* (- 1) x5))) (let ((.def_1 (* (- 1) x1))) (let ((.def_2 (+ .def_1 .def_0))) (let ((.def_3 (< .def_2 1))) (let ((.def_4 (not A6))) (let ((.def_5 (and .def_4 .def_3))) (let ((.def_6 (not .def_5))) (let ((.def_7 (* (- 1) x4))) (let ((.def_8 (< .def_7 (- 1)))) (let ((.def_9 (* (- 1) x8))) (let ((.def_10 (* (- 1) x0))) (let ((.def_11 (+ .def_10 .def_9))) (let ((.def_12 (< .def_11 (- 1)))) (let ((.def_13 (or .def_12 .def_8))) (let ((.def_14 (not .def_13))) (let ((.def_15 (or .def_14 .def_6))) (let ((.def_16 (* 1 x1))) (let ((.def_17 (< .def_16 (- 1)))) (let ((.def_18 (and .def_17 A3))) (let ((.def_19 (not .def_18))) (let ((.def_20 (< .def_0 (- 1)))) (let ((.def_21 (or .def_20 A8))) (let ((.def_22 (and .def_21 .def_19))) (let ((.def_23 (or .def_22 .def_15))) (let ((.def_24 (not .def_23))) (let ((.def_25 (not A2))) (let ((.def_26 (* (- 1) x9))) (let ((.def_27 (* 1 x6))) (let ((.def_28 (+ .def_27 .def_26))) (let ((.def_29 (< .def_28 (- 1)))) (let ((.def_30 (and .def_29 .def_25))) (let ((.def_31 (not .def_30))) (let ((.def_32 (not A7))) (let ((.def_33 (* 1 x5))) (let ((.def_34 (< .def_33 (- 1)))) (let ((.def_35 (and .def_34 .def_32))) (let ((.def_36 (and .def_35 .def_31))) (let ((.def_37 (not .def_36))) (let ((.def_38 (< .def_10 (- 1)))) (let ((.def_39 (not .def_38))) (let ((.def_40 (or A7 .def_39))) (let ((.def_41 (* (- 1) x3))) (let ((.def_42 (< .def_41 (- 1)))) (let ((.def_43 (not .def_42))) (let ((.def_44 (or .def_25 .def_43))) (let ((.def_45 (or .def_44 .def_40))) (let ((.def_46 (not .def_45))) (let ((.def_47 (and .def_46 .def_37))) (let ((.def_48 (= .def_47 .def_24))) (let ((.def_49 (not .def_48))) (let ((.def_50 (not A1))) (let ((.def_51 (or .def_32 .def_50))) (let ((.def_52 (not .def_51))) (let ((.def_53 (not A0))) (let ((.def_54 (not A4))) (let ((.def_55 (or .def_54 .def_53))) (let ((.def_56 (not .def_55))) (let ((.def_57 (or .def_56 .def_52))) (let ((.def_58 (* 1 x4))) (let ((.def_59 (< .def_58 (- 1)))) (let ((.def_60 (and .def_59 A2))) (let ((.def_61 (not .def_60))) (let ((.def_62 (not A5))) (let ((.def_63 (= A0 .def_62))) (let ((.def_64 (and .def_63 .def_61))) (let ((.def_65 (and .def_64 .def_57))) (let ((.def_66 (or A8 A7))) (let ((.def_67 (* 1 x7))) (let ((.def_68 (* (- 1) x2))) (let ((.def_69 (+ .def_68 .def_67))) (let ((.def_70 (< .def_69 (- 1)))) (let ((.def_71 (not .def_70))) (let ((.def_72 (* 1 x2))) (let ((.def_73 (< .def_72 1))) (let ((.def_74 (not .def_73))) (let ((.def_75 (or .def_74 .def_71))) (let ((.def_76 (and .def_75 .def_66))) (let ((.def_77 (not .def_76))) (let ((.def_78 (+ .def_7 .def_68))) (let ((.def_79 (< .def_78 1))) (let ((.def_80 (or .def_79 A8))) (let ((.def_81 (not A8))) (let ((.def_82 (+ .def_0 .def_9))) (let ((.def_83 (< .def_82 (- 1)))) (let ((.def_84 (not .def_83))) (let ((.def_85 (or .def_84 .def_81))) (let ((.def_86 (or .def_85 .def_80))) (let ((.def_87 (and .def_86 .def_77))) (let ((.def_88 (not .def_87))) (let ((.def_89 (and .def_88 .def_65))) (let ((.def_90 (and .def_89 .def_49))) (let ((.def_91 (+ .def_41 .def_58))) (let ((.def_92 (< .def_91 (- 1)))) (let ((.def_93 (and .def_4 .def_92))) (let ((.def_94 (not .def_93))) (let ((.def_95 (* (- 1) x7))) (let ((.def_96 (+ .def_58 .def_95))) (let ((.def_97 (< .def_96 (- 1)))) (let ((.def_98 (not .def_97))) (let ((.def_99 (* 1 x0))) (let ((.def_100 (+ .def_41 .def_99))) (let ((.def_101 (< .def_100 1))) (let ((.def_102 (and .def_101 .def_98))) (let ((.def_103 (or .def_102 .def_94))) (let ((.def_104 (* (- 1) x6))) (let ((.def_105 (< .def_104 (- 1)))) (let ((.def_106 (not .def_105))) (let ((.def_107 (= A8 .def_106))) (let ((.def_108 (< .def_41 1))) (let ((.def_109 (not .def_34))) (let ((.def_110 (and .def_109 .def_108))) (let ((.def_111 (and .def_110 .def_107))) (let ((.def_112 (and .def_111 .def_103))) (let ((.def_113 (not A9))) (let ((.def_114 (and .def_54 .def_113))) (let ((.def_115 (and A1 A7))) (let ((.def_116 (not .def_115))) (let ((.def_117 (and .def_116 .def_114))) (let ((.def_118 (and .def_53 A5))) (let ((.def_119 (* 1 x8))) (let ((.def_120 (< .def_119 1))) (let ((.def_121 (= .def_53 .def_120))) (let ((.def_122 (or .def_121 .def_118))) (let ((.def_123 (not .def_122))) (let ((.def_124 (or .def_123 .def_117))) (let ((.def_125 (not .def_124))) (let ((.def_126 (and .def_125 .def_112))) (let ((.def_127 (* 1 x3))) (let ((.def_128 (+ .def_127 .def_27))) (let ((.def_129 (< .def_128 1))) (let ((.def_130 (not .def_129))) (let ((.def_131 (or .def_130 .def_32))) (let ((.def_132 (and A5 .def_81))) (let ((.def_133 (not .def_132))) (let ((.def_134 (and .def_133 .def_131))) (let ((.def_135 (not .def_134))) (let ((.def_136 (< .def_0 1))) (let ((.def_137 (or .def_32 .def_136))) (let ((.def_138 (not .def_137))) (let ((.def_139 (or .def_20 .def_25))) (let ((.def_140 (or .def_139 .def_138))) (let ((.def_141 (not .def_140))) (let ((.def_142 (= .def_141 .def_135))) (let ((.def_143 (not .def_142))) (let ((.def_144 (+ .def_68 .def_27))) (let ((.def_145 (< .def_144 (- 1)))) (let ((.def_146 (+ .def_27 .def_95))) (let ((.def_147 (< .def_146 1))) (let ((.def_148 (= .def_147 .def_145))) (let ((.def_149 (not .def_108))) (let ((.def_150 (= .def_54 .def_149))) (let ((.def_151 (not .def_150))) (let ((.def_152 (and .def_151 .def_148))) (let ((.def_153 (not .def_152))) (let ((.def_154 (+ .def_10 .def_58))) (let ((.def_155 (< .def_154 (- 1)))) (let ((.def_156 (+ .def_99 .def_58))) (let ((.def_157 (< .def_156 1))) (let ((.def_158 (not .def_157))) (let ((.def_159 (or .def_158 .def_155))) (let ((.def_160 (not .def_159))) (let ((.def_161 (< .def_9 1))) (let ((.def_162 (not .def_161))) (let ((.def_163 (+ .def_95 .def_7))) (let ((.def_164 (< .def_163 (- 1)))) (let ((.def_165 (and .def_164 .def_162))) (let ((.def_166 (not .def_165))) (let ((.def_167 (and .def_166 .def_160))) (let ((.def_168 (and .def_167 .def_153))) (let ((.def_169 (not .def_168))) (let ((.def_170 (or .def_169 .def_143))) (let ((.def_171 (and .def_170 .def_126))) (let ((.def_172 (and .def_171 .def_90))) (let ((.def_173 (not .def_172))) (let ((.def_174 (+ .def_16 .def_127))) (let ((.def_175 (< .def_174 1))) (let ((.def_176 (not .def_175))) (let ((.def_177 (+ .def_26 .def_68))) (let ((.def_178 (< .def_177 (- 1)))) (let ((.def_179 (not .def_178))) (let ((.def_180 (and .def_179 .def_176))) (let ((.def_181 (not A3))) (let ((.def_182 (< .def_1 (- 1)))) (let ((.def_183 (and .def_182 .def_181))) (let ((.def_184 (not .def_183))) (let ((.def_185 (and .def_184 .def_180))) (let ((.def_186 (< .def_91 1))) (let ((.def_187 (< .def_99 1))) (let ((.def_188 (or .def_187 .def_186))) (let ((.def_189 (not .def_188))) (let ((.def_190 (+ .def_99 .def_1))) (let ((.def_191 (< .def_190 1))) (let ((.def_192 (or .def_191 .def_32))) (let ((.def_193 (not .def_192))) (let ((.def_194 (or .def_193 .def_189))) (let ((.def_195 (and .def_194 .def_185))) (let ((.def_196 (not .def_195))) (let ((.def_197 (and A5 A5))) (let ((.def_198 (not .def_197))) (let ((.def_199 (+ .def_33 .def_10))) (let ((.def_200 (< .def_199 1))) (let ((.def_201 (not .def_200))) (let ((.def_202 (and .def_201 .def_81))) (let ((.def_203 (not .def_202))) (let ((.def_204 (or .def_203 .def_198))) (let ((.def_205 (not .def_204))) (let ((.def_206 (and .def_43 A7))) (let ((.def_207 (not .def_206))) (let ((.def_208 (+ .def_104 .def_41))) (let ((.def_209 (< .def_208 (- 1)))) (let ((.def_210 (not .def_209))) (let ((.def_211 (and .def_81 .def_210))) (let ((.def_212 (and .def_211 .def_207))) (let ((.def_213 (not .def_212))) (let ((.def_214 (or .def_213 .def_205))) (let ((.def_215 (and .def_214 .def_196))) (let ((.def_216 (not .def_215))) (let ((.def_217 (not .def_136))) (let ((.def_218 (+ .def_58 .def_104))) (let ((.def_219 (< .def_218 (- 1)))) (let ((.def_220 (and .def_219 .def_217))) (let ((.def_221 (* 1 x9))) (let ((.def_222 (< .def_221 1))) (let ((.def_223 (not .def_222))) (let ((.def_224 (or A4 .def_223))) (let ((.def_225 (not .def_224))) (let ((.def_226 (and .def_225 .def_220))) (let ((.def_227 (not .def_226))) (let ((.def_228 (or A7 .def_20))) (let ((.def_229 (not .def_228))) (let ((.def_230 (+ .def_1 .def_221))) (let ((.def_231 (< .def_230 (- 1)))) (let ((.def_232 (and .def_231 .def_53))) (let ((.def_233 (not .def_232))) (let ((.def_234 (and .def_233 .def_229))) (let ((.def_235 (not .def_234))) (let ((.def_236 (and .def_235 .def_227))) (let ((.def_237 (not .def_236))) (let ((.def_238 (or .def_53 A1))) (let ((.def_239 (not .def_238))) (let ((.def_240 (and .def_39 .def_181))) (let ((.def_241 (or .def_240 .def_239))) (let ((.def_242 (+ .def_41 .def_95))) (let ((.def_243 (< .def_242 (- 1)))) (let ((.def_244 (or .def_243 A2))) (let ((.def_245 (not .def_244))) (let ((.def_246 (= .def_4 .def_53))) (let ((.def_247 (or .def_246 .def_245))) (let ((.def_248 (and .def_247 .def_241))) (let ((.def_249 (not .def_248))) (let ((.def_250 (or .def_249 .def_237))) (let ((.def_251 (and .def_250 .def_216))) (let ((.def_252 (+ .def_127 .def_95))) (let ((.def_253 (< .def_252 1))) (let ((.def_254 (not .def_253))) (let ((.def_255 (= .def_254 .def_74))) (let ((.def_256 (not .def_120))) (let ((.def_257 (and A0 .def_256))) (let ((.def_258 (or .def_257 .def_255))) (let ((.def_259 (< .def_9 (- 1)))) (let ((.def_260 (not .def_259))) (let ((.def_261 (and .def_260 .def_181))) (let ((.def_262 (< .def_99 (- 1)))) (let ((.def_263 (not .def_262))) (let ((.def_264 (< .def_104 1))) (let ((.def_265 (not .def_264))) (let ((.def_266 (or .def_265 .def_263))) (let ((.def_267 (not .def_266))) (let ((.def_268 (or .def_267 .def_261))) (let ((.def_269 (and .def_268 .def_258))) (let ((.def_270 (not .def_269))) (let ((.def_271 (< .def_33 1))) (let ((.def_272 (< .def_26 1))) (let ((.def_273 (not .def_272))) (let ((.def_274 (= .def_273 .def_271))) (let ((.def_275 (not .def_274))) (let ((.def_276 (< .def_58 1))) (let ((.def_277 (and .def_276 .def_265))) (let ((.def_278 (not .def_277))) (let ((.def_279 (= .def_278 .def_275))) (let ((.def_280 (not .def_279))) (let ((.def_281 (or A9 .def_43))) (let ((.def_282 (not .def_281))) (let ((.def_283 (not .def_187))) (let ((.def_284 (and .def_283 .def_62))) (let ((.def_285 (and .def_284 .def_282))) (let ((.def_286 (not .def_285))) (let ((.def_287 (or .def_286 .def_280))) (let ((.def_288 (not .def_287))) (let ((.def_289 (or .def_288 .def_270))) (let ((.def_290 (< .def_67 1))) (let ((.def_291 (or A2 .def_290))) (let ((.def_292 (and A9 .def_62))) (let ((.def_293 (= .def_292 .def_291))) (let ((.def_294 (not .def_293))) (let ((.def_295 (+ .def_127 .def_104))) (let ((.def_296 (< .def_295 1))) (let ((.def_297 (or .def_296 .def_276))) (let ((.def_298 (< .def_95 1))) (let ((.def_299 (< .def_295 (- 1)))) (let ((.def_300 (not .def_299))) (let ((.def_301 (and .def_300 .def_298))) (let ((.def_302 (not .def_301))) (let ((.def_303 (or .def_302 .def_297))) (let ((.def_304 (not .def_303))) (let ((.def_305 (= .def_304 .def_294))) (let ((.def_306 (not .def_305))) (let ((.def_307 (< .def_68 (- 1)))) (let ((.def_308 (or A4 .def_307))) (let ((.def_309 (or .def_108 .def_162))) (let ((.def_310 (and .def_309 .def_308))) (let ((.def_311 (and .def_42 .def_4))) (let ((.def_312 (not .def_311))) (let ((.def_313 (+ .def_26 .def_10))) (let ((.def_314 (< .def_313 (- 1)))) (let ((.def_315 (not .def_314))) (let ((.def_316 (and .def_315 A1))) (let ((.def_317 (and .def_316 .def_312))) (let ((.def_318 (or .def_317 .def_310))) (let ((.def_319 (or .def_318 .def_306))) (let ((.def_320 (or .def_319 .def_289))) (let ((.def_321 (not .def_320))) (let ((.def_322 (or .def_321 .def_251))) (let ((.def_323 (not .def_322))) (let ((.def_324 (and .def_323 .def_173))) (let ((.def_325 (not .def_324))) (let ((.def_326 (< .def_27 (- 1)))) (let ((.def_327 (and .def_326 .def_113))) (let ((.def_328 (+ .def_9 .def_1))) (let ((.def_329 (< .def_328 (- 1)))) (let ((.def_330 (not .def_329))) (let ((.def_331 (or .def_50 .def_330))) (let ((.def_332 (not .def_331))) (let ((.def_333 (and .def_332 .def_327))) (let ((.def_334 (not .def_8))) (let ((.def_335 (or A8 .def_334))) (let ((.def_336 (not .def_335))) (let ((.def_337 (or .def_62 .def_53))) (let ((.def_338 (or .def_337 .def_336))) (let ((.def_339 (not .def_338))) (let ((.def_340 (or .def_339 .def_333))) (let ((.def_341 (and .def_32 A1))) (let ((.def_342 (not .def_341))) (let ((.def_343 (and A5 .def_136))) (let ((.def_344 (or .def_343 .def_342))) (let ((.def_345 (not .def_344))) (let ((.def_346 (+ .def_99 .def_68))) (let ((.def_347 (< .def_346 (- 1)))) (let ((.def_348 (+ .def_16 .def_0))) (let ((.def_349 (< .def_348 1))) (let ((.def_350 (and .def_349 .def_347))) (let ((.def_351 (not .def_350))) (let ((.def_352 (+ .def_27 .def_67))) (let ((.def_353 (< .def_352 (- 1)))) (let ((.def_354 (or .def_62 .def_353))) (let ((.def_355 (not .def_354))) (let ((.def_356 (and .def_355 .def_351))) (let ((.def_357 (and .def_356 .def_345))) (let ((.def_358 (or .def_357 .def_340))) (let ((.def_359 (not .def_358))) (let ((.def_360 (< .def_127 (- 1)))) (let ((.def_361 (and .def_360 A0))) (let ((.def_362 (and A9 .def_53))) (let ((.def_363 (and .def_362 .def_361))) (let ((.def_364 (not .def_363))) (let ((.def_365 (+ .def_9 .def_67))) (let ((.def_366 (< .def_365 (- 1)))) (let ((.def_367 (= .def_366 A1))) (let ((.def_368 (not .def_367))) (let ((.def_369 (+ .def_67 .def_119))) (let ((.def_370 (< .def_369 (- 1)))) (let ((.def_371 (or .def_113 .def_370))) (let ((.def_372 (= .def_371 .def_368))) (let ((.def_373 (not .def_372))) (let ((.def_374 (and .def_373 .def_364))) (let ((.def_375 (not .def_374))) (let ((.def_376 (< .def_1 1))) (let ((.def_377 (not .def_376))) (let ((.def_378 (< .def_190 (- 1)))) (let ((.def_379 (or .def_378 .def_377))) (let ((.def_380 (< .def_154 1))) (let ((.def_381 (= A0 .def_380))) (let ((.def_382 (or .def_381 .def_379))) (let ((.def_383 (not .def_382))) (let ((.def_384 (+ .def_119 .def_16))) (let ((.def_385 (< .def_384 (- 1)))) (let ((.def_386 (= .def_4 .def_385))) (let ((.def_387 (not .def_386))) (let ((.def_388 (+ .def_26 .def_67))) (let ((.def_389 (< .def_388 (- 1)))) (let ((.def_390 (not .def_389))) (let ((.def_391 (< .def_95 (- 1)))) (let ((.def_392 (and .def_391 .def_390))) (let ((.def_393 (and .def_392 .def_387))) (let ((.def_394 (not .def_393))) (let ((.def_395 (and .def_394 .def_383))) (let ((.def_396 (not .def_395))) (let ((.def_397 (or .def_396 .def_375))) (let ((.def_398 (or .def_397 .def_359))) (let ((.def_399 (= .def_50 .def_17))) (let ((.def_400 (= A7 .def_62))) (let ((.def_401 (or .def_400 .def_399))) (let ((.def_402 (< .def_221 (- 1)))) (let ((.def_403 (not .def_402))) (let ((.def_404 (and .def_273 .def_403))) (let ((.def_405 (not .def_404))) (let ((.def_406 (or A7 A9))) (let ((.def_407 (or .def_406 .def_405))) (let ((.def_408 (not .def_407))) (let ((.def_409 (or .def_408 .def_401))) (let ((.def_410 (= A6 A5))) (let ((.def_411 (and A1 .def_53))) (let ((.def_412 (not .def_411))) (let ((.def_413 (and .def_412 .def_410))) (let ((.def_414 (not .def_413))) (let ((.def_415 (or .def_4 A4))) (let ((.def_416 (+ .def_26 .def_7))) (let ((.def_417 (< .def_416 (- 1)))) (let ((.def_418 (not .def_417))) (let ((.def_419 (or A7 .def_418))) (let ((.def_420 (and .def_419 .def_415))) (let ((.def_421 (not .def_420))) (let ((.def_422 (and .def_421 .def_414))) (let ((.def_423 (not .def_422))) (let ((.def_424 (and .def_423 .def_409))) (let ((.def_425 (and A8 A8))) (let ((.def_426 (= .def_32 .def_265))) (let ((.def_427 (or .def_426 .def_425))) (let ((.def_428 (+ .def_72 .def_127))) (let ((.def_429 (< .def_428 (- 1)))) (let ((.def_430 (not .def_326))) (let ((.def_431 (or .def_430 .def_429))) (let ((.def_432 (not .def_431))) (let ((.def_433 (and .def_259 .def_32))) (let ((.def_434 (not .def_433))) (let ((.def_435 (and .def_434 .def_432))) (let ((.def_436 (not .def_435))) (let ((.def_437 (and .def_436 .def_427))) (let ((.def_438 (< .def_67 (- 1)))) (let ((.def_439 (not .def_438))) (let ((.def_440 (or A6 .def_439))) (let ((.def_441 (< .def_7 1))) (let ((.def_442 (not .def_441))) (let ((.def_443 (+ .def_119 .def_67))) (let ((.def_444 (< .def_443 (- 1)))) (let ((.def_445 (or .def_444 .def_442))) (let ((.def_446 (not .def_445))) (let ((.def_447 (and .def_446 .def_440))) (let ((.def_448 (and .def_62 A2))) (let ((.def_449 (not .def_448))) (let ((.def_450 (+ .def_0 .def_104))) (let ((.def_451 (< .def_450 (- 1)))) (let ((.def_452 (not .def_451))) (let ((.def_453 (and .def_181 .def_452))) (let ((.def_454 (not .def_453))) (let ((.def_455 (or .def_454 .def_449))) (let ((.def_456 (not .def_455))) (let ((.def_457 (or .def_456 .def_447))) (let ((.def_458 (not .def_457))) (let ((.def_459 (or .def_458 .def_437))) (let ((.def_460 (and .def_459 .def_424))) (let ((.def_461 (and .def_460 .def_398))) (let ((.def_462 (and A1 A1))) (let ((.def_463 (or .def_39 A2))) (let ((.def_464 (or .def_463 .def_462))) (let ((.def_465 (< .def_119 (- 1)))) (let ((.def_466 (not .def_465))) (let ((.def_467 (= .def_466 .def_4))) (let ((.def_468 (and .def_181 A5))) (let ((.def_469 (not .def_468))) (let ((.def_470 (and .def_469 .def_467))) (let ((.def_471 (and .def_470 .def_464))) (let ((.def_472 (or A3 A4))) (let ((.def_473 (+ .def_68 .def_7))) (let ((.def_474 (< .def_473 (- 1)))) (let ((.def_475 (not .def_474))) (let ((.def_476 (< .def_72 (- 1)))) (let ((.def_477 (not .def_476))) (let ((.def_478 (or .def_477 .def_475))) (let ((.def_479 (not .def_478))) (let ((.def_480 (and .def_479 .def_472))) (let ((.def_481 (not .def_480))) (let ((.def_482 (+ .def_33 .def_68))) (let ((.def_483 (< .def_482 1))) (let ((.def_484 (or .def_483 A1))) (let ((.def_485 (not .def_484))) (let ((.def_486 (= A2 .def_403))) (let ((.def_487 (not .def_486))) (let ((.def_488 (or .def_487 .def_485))) (let ((.def_489 (and .def_488 .def_481))) (let ((.def_490 (= .def_489 .def_471))) (let ((.def_491 (not .def_490))) (let ((.def_492 (+ .def_68 .def_127))) (let ((.def_493 (< .def_492 1))) (let ((.def_494 (not .def_493))) (let ((.def_495 (and .def_494 .def_276))) (let ((.def_496 (not .def_495))) (let ((.def_497 (not .def_298))) (let ((.def_498 (or A3 .def_497))) (let ((.def_499 (or .def_498 .def_496))) (let ((.def_500 (+ .def_67 .def_26))) (let ((.def_501 (< .def_500 (- 1)))) (let ((.def_502 (not .def_501))) (let ((.def_503 (+ .def_41 .def_0))) (let ((.def_504 (< .def_503 1))) (let ((.def_505 (not .def_504))) (let ((.def_506 (or .def_505 .def_502))) (let ((.def_507 (+ .def_95 .def_26))) (let ((.def_508 (< .def_507 1))) (let ((.def_509 (not .def_508))) (let ((.def_510 (and .def_509 .def_109))) (let ((.def_511 (and .def_510 .def_506))) (let ((.def_512 (not .def_511))) (let ((.def_513 (= .def_512 .def_499))) (let ((.def_514 (not .def_513))) (let ((.def_515 (+ .def_41 .def_72))) (let ((.def_516 (< .def_515 (- 1)))) (let ((.def_517 (not .def_516))) (let ((.def_518 (or A7 .def_517))) (let ((.def_519 (not .def_518))) (let ((.def_520 (< .def_127 1))) (let ((.def_521 (not .def_520))) (let ((.def_522 (or .def_181 .def_521))) (let ((.def_523 (or .def_522 .def_519))) (let ((.def_524 (not .def_523))) (let ((.def_525 (or A6 .def_62))) (let ((.def_526 (and .def_113 A0))) (let ((.def_527 (not .def_526))) (let ((.def_528 (or .def_527 .def_525))) (let ((.def_529 (= .def_528 .def_524))) (let ((.def_530 (and .def_529 .def_514))) (let ((.def_531 (not .def_530))) (let ((.def_532 (or .def_531 .def_491))) (let ((.def_533 (not .def_532))) (let ((.def_534 (and A7 A9))) (let ((.def_535 (not .def_534))) (let ((.def_536 (+ .def_68 .def_16))) (let ((.def_537 (< .def_536 (- 1)))) (let ((.def_538 (not .def_537))) (let ((.def_539 (or A2 .def_538))) (let ((.def_540 (not .def_539))) (let ((.def_541 (and .def_540 .def_535))) (let ((.def_542 (or .def_62 .def_34))) (let ((.def_543 (or .def_271 A0))) (let ((.def_544 (not .def_543))) (let ((.def_545 (or .def_544 .def_542))) (let ((.def_546 (or .def_545 .def_541))) (let ((.def_547 (+ .def_119 .def_0))) (let ((.def_548 (< .def_547 1))) (let ((.def_549 (or A6 .def_548))) (let ((.def_550 (not .def_549))) (let ((.def_551 (+ .def_67 .def_33))) (let ((.def_552 (< .def_551 1))) (let ((.def_553 (not .def_552))) (let ((.def_554 (+ .def_119 .def_41))) (let ((.def_555 (< .def_554 1))) (let ((.def_556 (not .def_555))) (let ((.def_557 (or .def_556 .def_553))) (let ((.def_558 (not .def_557))) (let ((.def_559 (or .def_558 .def_550))) (let ((.def_560 (and .def_25 .def_62))) (let ((.def_561 (not .def_560))) (let ((.def_562 (+ .def_7 .def_10))) (let ((.def_563 (< .def_562 (- 1)))) (let ((.def_564 (< .def_96 1))) (let ((.def_565 (or .def_564 .def_563))) (let ((.def_566 (or .def_565 .def_561))) (let ((.def_567 (and .def_566 .def_559))) (let ((.def_568 (or .def_567 .def_546))) (let ((.def_569 (not .def_568))) (let ((.def_570 (and .def_32 .def_334))) (let ((.def_571 (and .def_81 .def_4))) (let ((.def_572 (not .def_571))) (let ((.def_573 (and .def_572 .def_570))) (let ((.def_574 (not .def_573))) (let ((.def_575 (and .def_81 A1))) (let ((.def_576 (or .def_50 .def_222))) (let ((.def_577 (= .def_576 .def_575))) (let ((.def_578 (not .def_577))) (let ((.def_579 (or .def_578 .def_574))) (let ((.def_580 (+ .def_0 .def_16))) (let ((.def_581 (< .def_580 1))) (let ((.def_582 (= .def_62 .def_581))) (let ((.def_583 (not .def_582))) (let ((.def_584 (not .def_20))) (let ((.def_585 (and .def_584 .def_81))) (let ((.def_586 (or .def_585 .def_583))) (let ((.def_587 (not .def_586))) (let ((.def_588 (+ .def_33 .def_16))) (let ((.def_589 (< .def_588 (- 1)))) (let ((.def_590 (or .def_265 .def_589))) (let ((.def_591 (or A1 .def_283))) (let ((.def_592 (not .def_591))) (let ((.def_593 (and .def_592 .def_590))) (let ((.def_594 (and .def_593 .def_587))) (let ((.def_595 (and .def_594 .def_579))) (let ((.def_596 (not .def_595))) (let ((.def_597 (and .def_596 .def_569))) (let ((.def_598 (not .def_597))) (let ((.def_599 (and .def_598 .def_533))) (let ((.def_600 (not .def_599))) (let ((.def_601 (or .def_600 .def_461))) (let ((.def_602 (or .def_601 .def_325))) (let ((.def_603 (not .def_602))) (let ((.def_604 (<= x9 1))) (let ((.def_605 (<= 0 x9))) (let ((.def_606 (<= x8 1))) (let ((.def_607 (<= 0 x8))) (let ((.def_608 (<= x7 1))) (let ((.def_609 (<= 0 x7))) (let ((.def_610 (<= x6 1))) (let ((.def_611 (<= 0 x6))) (let ((.def_612 (<= x5 1))) (let ((.def_613 (<= 0 x5))) (let ((.def_614 (<= x4 1))) (let ((.def_615 (<= 0 x4))) (let ((.def_616 (<= x3 1))) (let ((.def_617 (<= 0 x3))) (let ((.def_618 (<= x2 1))) (let ((.def_619 (<= 0 x2))) (let ((.def_620 (<= x1 1))) (let ((.def_621 (<= 0 x1))) (let ((.def_622 (<= x0 1))) (let ((.def_623 (<= 0 x0))) (let ((.def_624 (and .def_623 .def_622 .def_621 .def_620 .def_619 .def_618 .def_617 .def_616 .def_615 .def_614 .def_613 .def_612 .def_611 .def_610 .def_609 .def_608 .def_607 .def_606 .def_605 .def_604 .def_603))) .def_624))))))))))))))))))))))))))))))))))))))))))))))))))))))))))))))))))))))))))))))))))))))))))))))))))))))))))))))))))))))))))))))))))))))))))))))))))))))))))))))))))))))))))))))))))))))))))))))))))))))))))))))))))))))))))))))))))))))))))))))))))))))))))))))))))))))))))))))))))))))))))))))))))))))))))))))))))))))))))))))))))))))))))))))))))))))))))))))))))))))))))))))))))))))))))))))))))))))))))))))))))))))))))))))))))))))))))))))))))))))))))))))))))))))))))))))))))))))))))))))))))))))))))))))))))))))))))))))))))))))))))))))))))))))))))))))))))))))))))))))))))))))))))))))))))))))))))))))))))))))))))))))))))))))))))))))))))
(check-sat)
